p cnf 713
-12 -222
-13 -225
-14 -228
-15 -231
-16 -234
-17 -237
-18 -240
-19 -243
-20 -246
-21 -249
-22 -252
-23 253
-24 254
-25 255
-26 256
-27 257
-28 -13
-28 -14
13 14 28
-29 -15
-29 -16
15 16 29
-30 -17
-30 -18
17 18 30
-31 -19
-31 -20
19 20 31
-32 -21
-32 -22
21 22 32
-33 -23
-33 -24
23 24 33
-34 -25
-34 -26
25 26 34
-35 28
-35 29
-28 -29 35
-36 30
-36 31
-30 -31 36
-37 32
-37 33
-32 -33 37
-38 -27
-38 34
27 -34 38
-39 35
-39 36
-35 -36 39
-40 37
-40 38
-37 -38 40
-41 39
-41 40
-39 -40 41
-42 -12
-42 13
12 -13 42
-43 12
-43 -13
-12 13 43
-44 -42
-44 -43
42 43 44
-45 12
-45 13
-12 -13 45
-46 -12
-46 -44
12 44 46
-47 12
-47 44
-12 -44 47
-48 -46
-48 -47
46 47 48
-49 12
-49 -44
-12 44 49
-50 -45
-50 -49
45 49 50
-51 -13
-51 14
13 -14 51
-52 13
-52 -14
-13 14 52
-53 -51
-53 -52
51 52 53
-54 13
-54 14
-13 -14 54
-55 50
-55 -53
-50 53 55
-56 -50
-56 53
50 -53 56
-57 -55
-57 -56
55 56 57
-58 -50
-58 -53
50 53 58
-59 -54
-59 -58
54 58 59
-60 -14
-60 15
14 -15 60
-61 14
-61 -15
-14 15 61
-62 -60
-62 -61
60 61 62
-63 14
-63 15
-14 -15 63
-64 59
-64 -62
-59 62 64
-65 -59
-65 62
59 -62 65
-66 -64
-66 -65
64 65 66
-67 -59
-67 -62
59 62 67
-68 -63
-68 -67
63 67 68
-69 -15
-69 16
15 -16 69
-70 15
-70 -16
-15 16 70
-71 -69
-71 -70
69 70 71
-72 15
-72 16
-15 -16 72
-73 68
-73 -71
-68 71 73
-74 -68
-74 71
68 -71 74
-75 -73
-75 -74
73 74 75
-76 -68
-76 -71
68 71 76
-77 -72
-77 -76
72 76 77
-78 -16
-78 17
16 -17 78
-79 16
-79 -17
-16 17 79
-80 -78
-80 -79
78 79 80
-81 16
-81 17
-16 -17 81
-82 77
-82 -80
-77 80 82
-83 -77
-83 80
77 -80 83
-84 -82
-84 -83
82 83 84
-85 -77
-85 -80
77 80 85
-86 -81
-86 -85
81 85 86
-87 -17
-87 18
17 -18 87
-88 17
-88 -18
-17 18 88
-89 -87
-89 -88
87 88 89
-90 17
-90 18
-17 -18 90
-91 86
-91 -89
-86 89 91
-92 -86
-92 89
86 -89 92
-93 -91
-93 -92
91 92 93
-94 -86
-94 -89
86 89 94
-95 -90
-95 -94
90 94 95
-96 -18
-96 19
18 -19 96
-97 18
-97 -19
-18 19 97
-98 -96
-98 -97
96 97 98
-99 18
-99 19
-18 -19 99
-100 95
-100 -98
-95 98 100
-101 -95
-101 98
95 -98 101
-102 -100
-102 -101
100 101 102
-103 -95
-103 -98
95 98 103
-104 -99
-104 -103
99 103 104
-105 -19
-105 20
19 -20 105
-106 19
-106 -20
-19 20 106
-107 -105
-107 -106
105 106 107
-108 19
-108 20
-19 -20 108
-109 104
-109 -107
-104 107 109
-110 -104
-110 107
104 -107 110
-111 -109
-111 -110
109 110 111
-112 -104
-112 -107
104 107 112
-113 -108
-113 -112
108 112 113
-114 -20
-114 21
20 -21 114
-115 20
-115 -21
-20 21 115
-116 -114
-116 -115
114 115 116
-117 20
-117 21
-20 -21 117
-118 113
-118 -116
-113 116 118
-119 -113
-119 116
113 -116 119
-120 -118
-120 -119
118 119 120
-121 -113
-121 -116
113 116 121
-122 -117
-122 -121
117 121 122
-123 -21
-123 22
21 -22 123
-124 21
-124 -22
-21 22 124
-125 -123
-125 -124
123 124 125
-126 21
-126 22
-21 -22 126
-127 122
-127 -125
-122 125 127
-128 -122
-128 125
122 -125 128
-129 -127
-129 -128
127 128 129
-130 -122
-130 -125
122 125 130
-131 -126
-131 -130
126 130 131
-132 -22
-132 23
22 -23 132
-133 22
-133 -23
-22 23 133
-134 -132
-134 -133
132 133 134
-135 22
-135 23
-22 -23 135
-136 131
-136 -134
-131 134 136
-137 -131
-137 134
131 -134 137
-138 -136
-138 -137
136 137 138
-139 -131
-139 -134
131 134 139
-140 -135
-140 -139
135 139 140
-141 -23
-141 24
23 -24 141
-142 23
-142 -24
-23 24 142
-143 -141
-143 -142
141 142 143
-144 23
-144 24
-23 -24 144
-145 140
-145 -143
-140 143 145
-146 -140
-146 143
140 -143 146
-147 -145
-147 -146
145 146 147
-148 -140
-148 -143
140 143 148
-149 -144
-149 -148
144 148 149
-150 -24
-150 25
24 -25 150
-151 24
-151 -25
-24 25 151
-152 -150
-152 -151
150 151 152
-153 24
-153 25
-24 -25 153
-154 149
-154 -152
-149 152 154
-155 -149
-155 152
149 -152 155
-156 -154
-156 -155
154 155 156
-157 -149
-157 -152
149 152 157
-158 -153
-158 -157
153 157 158
-159 -25
-159 26
25 -26 159
-160 25
-160 -26
-25 26 160
-161 -159
-161 -160
159 160 161
-162 25
-162 26
-25 -26 162
-163 158
-163 -161
-158 161 163
-164 -158
-164 161
158 -161 164
-165 -163
-165 -164
163 164 165
-166 -158
-166 -161
158 161 166
-167 -162
-167 -166
162 166 167
-168 -26
-168 27
26 -27 168
-169 26
-169 -27
-26 27 169
-170 -168
-170 -169
168 169 170
-171 26
-171 27
-26 -27 171
-172 167
-172 -170
-167 170 172
-173 -167
-173 170
167 -170 173
-174 -172
-174 -173
172 173 174
-175 -167
-175 -170
167 170 175
-176 -171
-176 -175
171 175 176
-177 12
-177 -48
-12 48 177
-178 -12
-178 14
12 -14 178
-179 -177
-179 -178
177 178 179
-180 12
-180 -57
-12 57 180
-181 -12
-181 15
12 -15 181
-182 -180
-182 -181
180 181 182
-183 12
-183 -66
-12 66 183
-184 -12
-184 16
12 -16 184
-185 -183
-185 -184
183 184 185
-186 12
-186 -75
-12 75 186
-187 -12
-187 17
12 -17 187
-188 -186
-188 -187
186 187 188
-189 12
-189 -84
-12 84 189
-190 -12
-190 18
12 -18 190
-191 -189
-191 -190
189 190 191
-192 12
-192 -93
-12 93 192
-193 -12
-193 19
12 -19 193
-194 -192
-194 -193
192 193 194
-195 12
-195 -102
-12 102 195
-196 -12
-196 20
12 -20 196
-197 -195
-197 -196
195 196 197
-198 12
-198 -111
-12 111 198
-199 -12
-199 21
12 -21 199
-200 -198
-200 -199
198 199 200
-201 12
-201 -120
-12 120 201
-202 -12
-202 22
12 -22 202
-203 -201
-203 -202
201 202 203
-204 12
-204 -129
-12 129 204
-205 -12
-205 23
12 -23 205
-206 -204
-206 -205
204 205 206
-207 12
-207 -138
-12 138 207
-208 -12
-208 24
12 -24 208
-209 -207
-209 -208
207 208 209
-210 12
-210 -147
-12 147 210
-211 -12
-211 25
12 -25 211
-212 -210
-212 -211
210 211 212
-213 12
-213 -156
-12 156 213
-214 -12
-214 26
12 -26 214
-215 -213
-215 -214
213 214 215
-216 12
-216 -165
-12 165 216
-217 -12
-217 27
12 -27 217
-218 -216
-218 -217
216 217 218
-219 12
-219 -174
-12 174 219
-220 1
-220 41
-1 -41 220
-221 -41
-221 42
41 -42 221
-222 -220
-222 -221
220 221 222
-223 2
-223 41
-2 -41 223
-224 -41
-224 -179
41 179 224
-225 -223
-225 -224
223 224 225
-226 3
-226 41
-3 -41 226
-227 -41
-227 -182
41 182 227
-228 -226
-228 -227
226 227 228
-229 4
-229 41
-4 -41 229
-230 -41
-230 -185
41 185 230
-231 -229
-231 -230
229 230 231
-232 5
-232 41
-5 -41 232
-233 -41
-233 -188
41 188 233
-234 -232
-234 -233
232 233 234
-235 6
-235 41
-6 -41 235
-236 -41
-236 -191
41 191 236
-237 -235
-237 -236
235 236 237
-238 7
-238 41
-7 -41 238
-239 -41
-239 -194
41 194 239
-240 -238
-240 -239
238 239 240
-241 8
-241 41
-8 -41 241
-242 -41
-242 -197
41 197 242
-243 -241
-243 -242
241 242 243
-244 9
-244 41
-9 -41 244
-245 -41
-245 -200
41 200 245
-246 -244
-246 -245
244 245 246
-247 10
-247 41
-10 -41 247
-248 -41
-248 -203
41 203 248
-249 -247
-249 -248
247 248 249
-250 11
-250 41
-11 -41 250
-251 -41
-251 -206
41 206 251
-252 -250
-252 -251
250 251 252
-253 -41
-253 -209
41 209 253
-254 -41
-254 -212
41 212 254
-255 -41
-255 -215
41 215 255
-256 -41
-256 -218
41 218 256
-257 -41
-257 219
41 -219 257
-258 -27
-258 176
27 -176 258
-259 12
-259 -258
-12 258 259
259
